interdiction/MCDM/NO_CORR/GEN_FROM_60/15_ITEMS_1000_GEN/K5015W16.KNP.mps
NAME          BLANK   
ROWS
 N  OBJROW
 L  R0000000
COLUMNS
    C0000000  OBJROW     -547.         R0000000  890.        
    C0000001  OBJROW     -518.         R0000000  410.        
    C0000002  OBJROW     -693.         R0000000  439.        
    C0000003  OBJROW     -606.         R0000000  515.        
    C0000004  OBJROW     -915.         R0000000  626.        
    C0000005  OBJROW     -255.         R0000000  423.        
    C0000006  OBJROW     -91.          R0000000  764.        
    C0000007  OBJROW     -308.         R0000000  172.        
    C0000008  OBJROW     -410.         R0000000  876.        
    C0000009  OBJROW     -915.         R0000000  373.        
    C0000010  OBJROW     -790.         R0000000  367.        
    C0000011  OBJROW     -541.         R0000000  764.        
    C0000012  OBJROW     -702.         R0000000  175.        
    C0000013  OBJROW     -339.         R0000000  102.        
    C0000014  OBJROW     -660.         R0000000  744.        
RHS
    RHS       R0000000  13852.      
BOUNDS
 BV BOUND     C0000000  1.          
 BV BOUND     C0000001  1.          
 BV BOUND     C0000002  1.          
 BV BOUND     C0000003  1.          
 BV BOUND     C0000004  1.          
 BV BOUND     C0000005  1.          
 BV BOUND     C0000006  1.          
 BV BOUND     C0000007  1.          
 BV BOUND     C0000008  1.          
 BV BOUND     C0000009  1.          
 BV BOUND     C0000010  1.          
 BV BOUND     C0000011  1.          
 BV BOUND     C0000012  1.          
 BV BOUND     C0000013  1.          
 BV BOUND     C0000014  1.          
ENDATA
