data/MCDM/NO_CORR/GEN_FROM_60/15_ITEMS_1000_GEN/K5015W16.KNP.txt
N 15
M 16
LC 15
LC 16
LC 17
LC 18
LC 19
LC 20
LC 21
LC 22
LC 23
LC 24
LC 25
LC 26
LC 27
LC 28
LC 29
LR 1
LR 2
LR 3
LR 4
LR 5
LR 6
LR 7
LR 8
LR 9
LR 10
LR 11
LR 12
LR 13
LR 14
LR 15
LR 16
LO -547
LO -518
LO -693
LO -606
LO -915
LO -255
LO -91
LO -308
LO -410
LO -915
LO -790
LO -541
LO -702
LO -339
LO -660
OS 1
IC 252
IC 894
IC 797
IC 30
IC 179
IC 800
IC 739
IC 502
IC 166
IC 599
IC 68
IC 645
IC 214
IC 467
IC 249
IB 3301
